p edge 40 188 5
v 12 2 3 5 6 10 11 14 18 19 22 24 31
v 7 15 17 20 26 29 30 37
v 4 12 23 27 32
v 6 8 9 16 21 28 34
v 11 1 4 7 13 25 33 35 36 38 39 40
e 1 5
e 1 12
e 1 15
e 1 19
e 1 22
e 1 33
e 1 34
e 1 35
e 2 5
e 2 17
e 2 21
e 2 24
e 2 26
e 2 35
e 2 37
e 2 39
e 2 40
e 3 7
e 3 15
e 3 17
e 3 21
e 3 26
e 3 32
e 3 35
e 4 7
e 4 9
e 4 10
e 4 21
e 4 23
e 4 25
e 4 33
e 4 38
e 5 7
e 5 8
e 5 9
e 5 10
e 5 31
e 5 36
e 5 39
e 6 15
e 6 18
e 6 26
e 6 31
e 6 35
e 6 37
e 6 40
e 7 8
e 7 14
e 7 28
e 7 29
e 7 36
e 7 40
e 8 27
e 8 31
e 8 33
e 8 36
e 9 10
e 9 11
e 9 17
e 9 18
e 9 23
e 9 27
e 9 28
e 9 32
e 9 33
e 9 36
e 9 37
e 10 12
e 10 14
e 10 15
e 10 22
e 10 24
e 10 31
e 10 33
e 10 34
e 10 36
e 10 37
e 10 38
e 10 39
e 10 40
e 11 17
e 11 20
e 11 21
e 11 26
e 11 31
e 11 40
e 12 17
e 12 26
e 12 27
e 12 31
e 12 35
e 13 20
e 13 22
e 13 26
e 13 27
e 13 28
e 13 31
e 13 33
e 13 35
e 14 19
e 14 22
e 14 23
e 14 28
e 14 33
e 14 34
e 15 19
e 15 22
e 15 23
e 15 32
e 15 33
e 15 36
e 15 37
e 15 40
e 16 18
e 16 20
e 16 23
e 16 24
e 16 25
e 16 29
e 16 30
e 16 31
e 16 34
e 17 40
e 18 22
e 18 24
e 18 26
e 18 30
e 18 34
e 18 36
e 19 22
e 19 26
e 19 27
e 19 28
e 19 31
e 19 36
e 19 40
e 20 22
e 20 29
e 20 30
e 20 32
e 20 36
e 20 37
e 21 29
e 21 30
e 21 31
e 21 35
e 21 37
e 21 39
e 22 23
e 22 29
e 22 31
e 22 32
e 22 34
e 22 37
e 23 24
e 23 35
e 24 28
e 24 31
e 24 40
e 25 29
e 25 30
e 25 34
e 26 30
e 26 31
e 26 35
e 26 36
e 26 38
e 27 40
e 28 36
e 28 38
e 29 35
e 29 38
e 29 39
e 30 32
e 30 39
e 31 32
e 31 33
e 31 38
e 32 37
e 33 34
e 33 39
e 34 38
e 35 37
e 35 39
e 36 39
e 36 40
e 37 39
e 38 40
